101 102 100 99 98 97 96 95 94 93 92 91 555 554 553 552 556 557 41 40 39 42 43 44 45 46 47 48 49 54 55 56 53 52 50 51 84 83 82 57 58 59 60 61 63 62 78 79 80 81 87 86 85 90 89 88 77 76 64 65 66 67 68 69 70 71 72 75 74 73 119 118 120 121 122 123 124 125 126 127 128 129 130 137 138 139 140 141 151 150 149 152 148 147 142 143 144 145 146 153 155 156 159 157 158 136 135 134 133 132 131 113 112 161 160 162 168 163 167 166 164 154 165 201 200 199 198 202 204 203 208 207 206 205 197 196 195 194 209 210 211 212 213 214 215 216 217 223 224 222 221 220 218 219 193 184 185 183 182 179 181 180 169 171 170 172 110 111 114 115 116 117 106 105 104 103 547 546 545 544 543 541 542 107 109 108 173 174 175 176 177 178 540 539 537 538 187 188 186 192 191 190 226 225 189 227 228 229 230 231 533 532 489 531 530 233 232 234 235 236 237 509 510 511 513 512 527 528 529 490 486 488 534 487 535 536 484 485 483 481 482 475 476 480 479 477 478 548 549 560 561 562 563 564 565 566 567 474 473 472 494 524 525 493 492 491 526 523 521 522 514 515 516 517 520 519 518 495 471 470 496 497 498 502 503 504 506 507 508 302 301 303 304 306 298 299 300 241 242 244 243 240 239 238 246 247 245 248 249 250 251 252 254 253 255 256 257 260 261 259 258 262 263 264 265 266 267 271 268 270 269 272 273 274 275 292 291 293 294 295 296 297 321 320 319 317 318 305 307 505 308 309 310 311 312 313 316 314 315 374 373 322 323 324 325 326 327 328 329 366 342 330 331 332 288 289 290 276 277 278 279 282 281 280 287 286 285 284 283 334 335 333 336 337 338 339 340 341 343 344 365 367 368 369 370 372 371 396 395 375 376 377 378 379 380 381 390 392 391 393 394 397 398 399 400 404 405 406 407 408 409 403 402 401 360 359 358 361 362 363 364 346 345 347 348 349 350 351 352 353 354 355 357 356 412 411 413 414 415 416 417 419 418 410 384 383 385 387 388 389 386 382 425 424 423 422 421 420 426 427 428 429 431 430 432 433 434 437 438 436 435 445 444 443 439 442 446 447 448 449 440 441 450 451 501 500 499 452 453 454 455 456 457 458 459 460 461 462 463 464 465 469 468 467 466 571 572 573 0 1 2 3 4 5 6 7 8 9 10 11 14 15 16 17 18 19 20 570 569 568 21 13 12 23 22 24 25 26 27 28 29 31 30 32 36 37 38 35 33 34 558 559 550 551